(set-logic HORN)
(set-info :source |
  Benchmark: ../golem/build/RealCodeNested/originalcodesceleton1.c
  Generated by Korn 0.4 https://github.com/gernst/korn
|)


(declare-fun $main_if4 (Int Int Int Int Int Int Int Int Int Int Int Int Int Int Int Int Int Int Int Int Int Int Int Int Int Int Int Int Int Int Int Int Int Int) Bool)
(declare-fun $main_sum2 (Int Int Int Int Int Int Int Int Int Int Int Int Int Int Int Int Int) Bool)
(declare-fun $main_sum4 (Int Int Int Int Int Int Int Int Int Int Int Int Int Int Int Int Int) Bool)
(declare-fun __assert_fail (Int Int Int Int) Bool)
(declare-fun $main_if8 (Int Int Int Int Int Int Int Int Int Int Int Int Int Int Int Int Int Int Int Int Int Int Int Int Int Int Int Int Int Int Int Int Int Int) Bool)
(declare-fun $main_if5 (Int Int Int Int Int Int Int Int Int Int Int Int Int Int Int Int Int Int Int Int Int Int Int Int Int Int Int Int Int Int Int Int Int Int) Bool)
(declare-fun $main_if9 (Int Int Int Int Int Int Int Int Int Int Int Int Int Int Int Int Int Int Int Int Int Int Int Int Int Int Int Int Int Int Int Int Int Int) Bool)
(declare-fun $__VERIFIER_assert_pre (Int) Bool)
(declare-fun $__VERIFIER_assert_if1 (Int Int) Bool)
(declare-fun $main_sum1 (Int Int Int Int Int Int Int Int Int Int Int Int Int Int Int Int Int) Bool)
(declare-fun $main_inv4 (Int Int Int Int Int Int Int Int Int Int Int Int Int Int Int Int Int) Bool)
(declare-fun $main_inv2 (Int Int Int Int Int Int Int Int Int Int Int Int Int Int Int Int Int) Bool)
(declare-fun $main_inv1 (Int Int Int Int Int Int Int Int Int Int Int Int Int Int Int Int Int) Bool)
(declare-fun $main_inv3 (Int Int Int Int Int Int Int Int Int Int Int Int Int Int Int Int Int) Bool)
(declare-fun $main_if7 (Int Int Int Int Int Int Int Int Int Int Int Int Int Int Int Int Int Int Int Int Int Int Int Int Int Int Int Int Int Int Int Int Int Int) Bool)
(declare-fun $main_sum3 (Int Int Int Int Int Int Int Int Int Int Int Int Int Int Int Int Int) Bool)
(declare-fun $main_if3 (Int Int Int Int Int Int Int Int Int Int Int Int Int Int Int Int Int Int Int Int Int Int Int Int Int Int Int Int Int Int Int Int Int Int) Bool)
(declare-fun __VERIFIER_assert (Int) Bool)
(declare-fun $__assert_fail_pre (Int Int Int Int) Bool)
(declare-fun $main_if6 (Int Int Int Int Int Int Int Int Int Int Int Int Int Int Int Int Int Int Int Int Int Int Int Int Int Int Int Int Int Int Int Int Int Int) Bool)
(declare-fun $main_if2 (Int Int Int Int Int Int Int Int Int Int Int Int Int Int Int Int Int Int Int Int Int Int Int Int Int Int Int Int Int Int Int Int Int Int) Bool)
(declare-fun $__VERIFIER_assert_ERROR (Int Int) Bool)

; label ERROR
(assert
  (forall ((cond!1 Int))
    (=> (and (not (not (= cond!1 0)))
             ($__VERIFIER_assert_pre cond!1))
        ($__VERIFIER_assert_ERROR cond!1 cond!1))))

; error
(assert
  (forall ((cond!1 Int) (cond!2 Int))
    (=> (and ($__VERIFIER_assert_ERROR cond!1 cond!2))
        false)))

; if else
(assert
  (forall ((cond!1 Int))
    (=> (and (not (not (not (= cond!1 0))))
             ($__VERIFIER_assert_pre cond!1))
        ($__VERIFIER_assert_if1 cond!1 cond!1))))

; post __VERIFIER_assert
(assert
  (forall ((cond!1 Int) (cond!3 Int))
    (=> (and ($__VERIFIER_assert_if1 cond!1 cond!3))
        (__VERIFIER_assert cond!1))))

; loop entry $main_inv1 (line 21)
(assert
  (forall ((reachedRefined!7 Int) (res!17 Int) (loopTransitions!8 Int) (l!10 Int) (reachableResult!19 Int) (loopSize!9 Int) (coreVars!12 Int) (smtSolver!14 Int) (i!11 Int) (var!13 Int) (transitions!4 Int) (preSize!15 Int) (reachableResult3!20 Int) (k!18 Int) (j!16 Int) (edgeVars!5 Int) (subPath!6 Int))
    (=> (and (= i!11 0)
             (= l!10 0)
             (<= 2 loopSize!9)
             (<= loopSize!9 10)
             (<= 2 loopTransitions!8)
             (<= loopTransitions!8 100)
             (= reachedRefined!7 subPath!6)
             (= subPath!6 0)
             (<= 1 transitions!4)
             (<= transitions!4 100)
             (<= 2 edgeVars!5)
             (<= edgeVars!5 10000))
        ($main_inv1 transitions!4 edgeVars!5 subPath!6 reachedRefined!7 loopTransitions!8 loopSize!9 l!10 i!11 coreVars!12 var!13 smtSolver!14 preSize!15 j!16 res!17 k!18 reachableResult!19 reachableResult3!20))))

; loop term $main_sum1 (line 21)
(assert
  (forall ((res!34 Int) (edgeVars!22 Int) (reachableResult!36 Int) (i!28 Int) (j!33 Int) (smtSolver!31 Int) (transitions!21 Int) (l!27 Int) (preSize!32 Int) (var!30 Int) (subPath!23 Int) (reachedRefined!24 Int) (loopSize!26 Int) (k!35 Int) (coreVars!29 Int) (reachableResult3!37 Int) (loopTransitions!25 Int))
    (=> (and (not (< i!28 transitions!21))
             ($main_inv1 transitions!21 edgeVars!22 subPath!23 reachedRefined!24 loopTransitions!25 loopSize!26 l!27 i!28 coreVars!29 var!30 smtSolver!31 preSize!32 j!33 res!34 k!35 reachableResult!36 reachableResult3!37))
        ($main_sum1 transitions!21 edgeVars!22 subPath!23 reachedRefined!24 loopTransitions!25 loopSize!26 l!27 i!28 coreVars!29 var!30 smtSolver!31 preSize!32 j!33 res!34 k!35 reachableResult!36 reachableResult3!37))))

; loop entry $main_inv2 (line 24)
(assert
  (forall ((res!34 Int) (edgeVars!22 Int) (reachableResult!36 Int) (i!28 Int) (j!33 Int) (smtSolver!31 Int) (transitions!21 Int) (l!27 Int) (preSize!32 Int) (var!30 Int) (subPath!23 Int) (reachedRefined!24 Int) (loopSize!26 Int) (k!35 Int) (coreVars!29 Int) (reachableResult3!37 Int) (loopTransitions!25 Int))
    (=> (and (= var!30 0)
             (< i!28 transitions!21)
             ($main_inv1 transitions!21 edgeVars!22 subPath!23 reachedRefined!24 loopTransitions!25 loopSize!26 l!27 i!28 coreVars!29 var!30 smtSolver!31 preSize!32 j!33 res!34 k!35 reachableResult!36 reachableResult3!37))
        ($main_inv2 transitions!21 edgeVars!22 subPath!23 reachedRefined!24 loopTransitions!25 loopSize!26 l!27 i!28 coreVars!29 var!30 smtSolver!31 preSize!32 j!33 res!34 k!35 reachableResult!36 reachableResult3!37))))

; loop term $main_sum2 (line 24)
(assert
  (forall ((reachableResult!53 Int) (coreVars!46 Int) (reachableResult3!54 Int) (loopSize!43 Int) (k!52 Int) (i!45 Int) (res!51 Int) (transitions!38 Int) (j!50 Int) (reachedRefined!41 Int) (edgeVars!39 Int) (loopTransitions!42 Int) (l!44 Int) (subPath!40 Int) (var!47 Int) (smtSolver!48 Int) (preSize!49 Int))
    (=> (and (not (< var!47 edgeVars!39))
             ($main_inv2 transitions!38 edgeVars!39 subPath!40 reachedRefined!41 loopTransitions!42 loopSize!43 l!44 i!45 coreVars!46 var!47 smtSolver!48 preSize!49 j!50 res!51 k!52 reachableResult!53 reachableResult3!54))
        ($main_sum2 transitions!38 edgeVars!39 subPath!40 reachedRefined!41 loopTransitions!42 loopSize!43 l!44 i!45 coreVars!46 var!47 smtSolver!48 preSize!49 j!50 res!51 k!52 reachableResult!53 reachableResult3!54))))

; forwards $main_inv2 (line 24)
(assert
  (forall ((reachableResult!53 Int) (coreVars!46 Int) (reachableResult3!54 Int) (loopSize!43 Int) (k!52 Int) (i!45 Int) (res!51 Int) (transitions!38 Int) (j!50 Int) (reachedRefined!41 Int) (edgeVars!39 Int) (loopTransitions!42 Int) (l!44 Int) (subPath!40 Int) (var!47 Int) (smtSolver!48 Int) (preSize!49 Int))
    (=> (and (< var!47 edgeVars!39)
             ($main_inv2 transitions!38 edgeVars!39 subPath!40 reachedRefined!41 loopTransitions!42 loopSize!43 l!44 i!45 coreVars!46 var!47 smtSolver!48 preSize!49 j!50 res!51 k!52 reachableResult!53 reachableResult3!54))
        ($main_inv2 transitions!38 edgeVars!39 subPath!40 reachedRefined!41 loopTransitions!42 loopSize!43 l!44 i!45 (+ coreVars!46 1) (+ var!47 1) smtSolver!48 preSize!49 j!50 res!51 k!52 reachableResult!53 reachableResult3!54))))

; loop entry $main_inv3 (line 32)
(assert
  (forall ((k!69 Int) (i!62 Int) (var!64 Int) (reachableResult!70 Int) (j!67 Int) (reachedRefined!58 Int) (reachableResult3!71 Int) (preSize!66 Int) (subPath!57 Int) (l!61 Int) (smtSolver!65 Int) (loopTransitions!59 Int) (res!68 Int) (loopSize!60 Int) (transitions!55 Int) (edgeVars!56 Int) (coreVars!63 Int))
    (=> (and (= res!68 1)
             (= j!67 0)
             (= preSize!66 subPath!57)
             ($main_sum2 transitions!55 edgeVars!56 subPath!57 reachedRefined!58 loopTransitions!59 loopSize!60 l!61 i!62 coreVars!63 var!64 smtSolver!65 preSize!66 j!67 res!68 k!69 reachableResult!70 reachableResult3!71))
        ($main_inv3 transitions!55 edgeVars!56 subPath!57 reachedRefined!58 loopTransitions!59 loopSize!60 l!61 i!62 coreVars!63 var!64 smtSolver!65 preSize!66 j!67 res!68 k!69 reachableResult!70 reachableResult3!71))))

; loop term $main_sum3 (line 32)
(assert
  (forall ((l!78 Int) (loopSize!77 Int) (transitions!72 Int) (j!84 Int) (reachableResult!87 Int) (i!79 Int) (var!81 Int) (smtSolver!82 Int) (reachableResult3!88 Int) (k!86 Int) (edgeVars!73 Int) (subPath!74 Int) (res!85 Int) (coreVars!80 Int) (loopTransitions!76 Int) (reachedRefined!75 Int) (preSize!83 Int))
    (=> (and (not (< j!84 loopTransitions!76))
             ($main_inv3 transitions!72 edgeVars!73 subPath!74 reachedRefined!75 loopTransitions!76 loopSize!77 l!78 i!79 coreVars!80 var!81 smtSolver!82 preSize!83 j!84 res!85 k!86 reachableResult!87 reachableResult3!88))
        ($main_sum3 transitions!72 edgeVars!73 subPath!74 reachedRefined!75 loopTransitions!76 loopSize!77 l!78 i!79 coreVars!80 var!81 smtSolver!82 preSize!83 j!84 res!85 k!86 reachableResult!87 reachableResult3!88))))

; loop entry $main_inv4 (line 34)
(assert
  (forall ((l!78 Int) (loopSize!77 Int) (transitions!72 Int) (j!84 Int) (reachableResult!87 Int) (i!79 Int) (var!81 Int) (smtSolver!82 Int) (reachableResult3!88 Int) (k!86 Int) (edgeVars!73 Int) (subPath!74 Int) (res!85 Int) (coreVars!80 Int) (loopTransitions!76 Int) (reachedRefined!75 Int) (preSize!83 Int))
    (=> (and (> res!85 0)
             (< j!84 loopTransitions!76)
             ($main_inv3 transitions!72 edgeVars!73 subPath!74 reachedRefined!75 loopTransitions!76 loopSize!77 l!78 i!79 coreVars!80 var!81 smtSolver!82 preSize!83 j!84 res!85 k!86 reachableResult!87 reachableResult3!88))
        ($main_inv4 transitions!72 edgeVars!73 subPath!74 reachedRefined!75 loopTransitions!76 loopSize!77 l!78 i!79 coreVars!80 var!81 smtSolver!82 preSize!83 j!84 res!85 k!86 reachableResult!87 reachableResult3!88))))

; loop term $main_sum4 (line 34)
(assert
  (forall ((reachedRefined!92 Int) (reachableResult!104 Int) (k!103 Int) (edgeVars!90 Int) (transitions!89 Int) (res!102 Int) (j!101 Int) (l!95 Int) (preSize!100 Int) (coreVars!97 Int) (loopSize!94 Int) (loopTransitions!93 Int) (smtSolver!99 Int) (var!98 Int) (reachableResult3!105 Int) (subPath!91 Int) (i!96 Int))
    (=> (and (not (< l!95 (* loopSize!94 2)))
             ($main_inv4 transitions!89 edgeVars!90 subPath!91 reachedRefined!92 loopTransitions!93 loopSize!94 l!95 i!96 coreVars!97 var!98 smtSolver!99 preSize!100 j!101 res!102 k!103 reachableResult!104 reachableResult3!105))
        ($main_sum4 transitions!89 edgeVars!90 subPath!91 reachedRefined!92 loopTransitions!93 loopSize!94 l!95 i!96 coreVars!97 var!98 smtSolver!99 preSize!100 j!101 res!102 k!103 reachableResult!104 reachableResult3!105))))

; ite left
(assert
  (forall ((reachedRefined!92 Int) (reachableResult!104 Int) (k!103 Int) (edgeVars!90 Int) (transitions!89 Int) (res!102 Int) (j!101 Int) (l!95 Int) (preSize!100 Int) (coreVars!97 Int) (loopSize!94 Int) (loopTransitions!93 Int) (smtSolver!99 Int) (var!98 Int) (reachableResult3!105 Int) (subPath!91 Int) (i!96 Int))
    (=> (and (not (= subPath!91 0))
             (< l!95 (* loopSize!94 2))
             ($main_inv4 transitions!89 edgeVars!90 subPath!91 reachedRefined!92 loopTransitions!93 loopSize!94 l!95 i!96 coreVars!97 var!98 smtSolver!99 preSize!100 j!101 res!102 k!103 reachableResult!104 reachableResult3!105))
        ($main_if2 transitions!89 edgeVars!90 subPath!91 reachedRefined!92 loopTransitions!93 loopSize!94 l!95 i!96 coreVars!97 var!98 smtSolver!99 preSize!100 j!101 res!102 k!103 reachableResult!104 reachableResult3!105 transitions!89 edgeVars!90 subPath!91 reachedRefined!92 loopTransitions!93 loopSize!94 l!95 i!96 coreVars!97 var!98 smtSolver!99 preSize!100 j!101 res!102 k!103 reachableResult!104 reachableResult3!105))))

; ite right
(assert
  (forall ((reachedRefined!92 Int) (reachableResult!104 Int) (k!103 Int) (edgeVars!90 Int) (transitions!89 Int) (res!102 Int) (j!101 Int) (l!95 Int) (preSize!100 Int) (coreVars!97 Int) (loopSize!94 Int) (loopTransitions!93 Int) (smtSolver!99 Int) (var!98 Int) (reachableResult3!105 Int) (subPath!91 Int) (i!96 Int))
    (=> (and (not (not (= subPath!91 0)))
             (< l!95 (* loopSize!94 2))
             ($main_inv4 transitions!89 edgeVars!90 subPath!91 reachedRefined!92 loopTransitions!93 loopSize!94 l!95 i!96 coreVars!97 var!98 smtSolver!99 preSize!100 j!101 res!102 k!103 reachableResult!104 reachableResult3!105))
        ($main_if2 transitions!89 edgeVars!90 subPath!91 reachedRefined!92 loopTransitions!93 loopSize!94 l!95 i!96 coreVars!97 var!98 smtSolver!99 preSize!100 j!101 res!102 k!103 reachableResult!104 reachableResult3!105 transitions!89 edgeVars!90 subPath!91 reachedRefined!92 loopTransitions!93 loopSize!94 l!95 i!96 coreVars!97 var!98 smtSolver!99 preSize!100 j!101 res!102 k!103 reachableResult!104 reachableResult3!105))))

; break $main_sum4
(assert
  (forall ((reachedRefined!92 Int) (var!115 Int) (reachableResult3!122 Int) (k!103 Int) (j!118 Int) (transitions!89 Int) (res!102 Int) (j!101 Int) (smtSolver!116 Int) (l!95 Int) (preSize!100 Int) (l!112 Int) (reachableResult!104 Int) (loopTransitions!110 Int) (coreVars!97 Int) (loopSize!94 Int) (loopTransitions!93 Int) (smtSolver!99 Int) (coreVars!114 Int) (preSize!117 Int) (edgeVars!90 Int) (reachableResult!121 Int) (res!119 Int) (transitions!106 Int) (var!98 Int) (reachableResult3!105 Int) (edgeVars!107 Int) (k!120 Int) (reachedRefined!109 Int) (i!113 Int) (loopSize!111 Int) (subPath!108 Int) (subPath!91 Int) (i!96 Int))
    (=> (and (= l!112 0)
             (not (> reachableResult!121 0))
             (= (mod l!112 2) 0)
             (or (= reachableResult!121 1) (= reachableResult!121 0))
             (= k!120 (div l!112 2))
             ($main_if2 transitions!89 edgeVars!90 subPath!91 reachedRefined!92 loopTransitions!93 loopSize!94 l!95 i!96 coreVars!97 var!98 smtSolver!99 preSize!100 j!101 res!102 k!103 reachableResult!104 reachableResult3!105 transitions!106 edgeVars!107 subPath!108 reachedRefined!109 loopTransitions!110 loopSize!111 l!112 i!113 coreVars!114 var!115 smtSolver!116 preSize!117 j!118 res!119 k!120 reachableResult!121 reachableResult3!122))
        ($main_sum4 transitions!106 edgeVars!107 subPath!108 (ite (not (= subPath!91 0)) subPath!91 reachedRefined!92) loopTransitions!110 loopSize!111 l!112 i!113 coreVars!114 var!115 smtSolver!116 preSize!117 j!118 res!119 k!120 reachableResult!121 reachableResult3!122))))

; if else
(assert
  (forall ((reachedRefined!92 Int) (var!115 Int) (reachableResult3!122 Int) (k!103 Int) (j!118 Int) (transitions!89 Int) (res!102 Int) (j!101 Int) (smtSolver!116 Int) (l!95 Int) (preSize!100 Int) (l!112 Int) (reachableResult!104 Int) (loopTransitions!110 Int) (coreVars!97 Int) (loopSize!94 Int) (loopTransitions!93 Int) (smtSolver!99 Int) (coreVars!114 Int) (preSize!117 Int) (edgeVars!90 Int) (reachableResult!121 Int) (res!119 Int) (transitions!106 Int) (var!98 Int) (reachableResult3!105 Int) (edgeVars!107 Int) (k!120 Int) (reachedRefined!109 Int) (i!113 Int) (loopSize!111 Int) (subPath!108 Int) (subPath!91 Int) (i!96 Int))
    (=> (and (not (= l!112 0))
             (not (> reachableResult!121 0))
             (= (mod l!112 2) 0)
             (or (= reachableResult!121 1) (= reachableResult!121 0))
             (= k!120 (div l!112 2))
             ($main_if2 transitions!89 edgeVars!90 subPath!91 reachedRefined!92 loopTransitions!93 loopSize!94 l!95 i!96 coreVars!97 var!98 smtSolver!99 preSize!100 j!101 res!102 k!103 reachableResult!104 reachableResult3!105 transitions!106 edgeVars!107 subPath!108 reachedRefined!109 loopTransitions!110 loopSize!111 l!112 i!113 coreVars!114 var!115 smtSolver!116 preSize!117 j!118 res!119 k!120 reachableResult!121 reachableResult3!122))
        ($main_if3 transitions!89 edgeVars!90 subPath!91 reachedRefined!92 loopTransitions!93 loopSize!94 l!95 i!96 coreVars!97 var!98 smtSolver!99 preSize!100 j!101 res!102 k!103 reachableResult!104 reachableResult3!105 transitions!106 edgeVars!107 subPath!108 (ite (not (= subPath!91 0)) subPath!91 reachedRefined!92) loopTransitions!110 loopSize!111 l!112 i!113 coreVars!114 var!115 smtSolver!116 preSize!117 j!118 res!119 k!120 reachableResult!121 reachableResult3!122))))

; if then
(assert
  (forall ((reachedRefined!92 Int) (var!115 Int) (reachableResult3!122 Int) (k!103 Int) (j!118 Int) (transitions!89 Int) (res!102 Int) (j!101 Int) (smtSolver!116 Int) (l!95 Int) (preSize!100 Int) (l!112 Int) (reachableResult!104 Int) (loopTransitions!110 Int) (coreVars!97 Int) (loopSize!94 Int) (loopTransitions!93 Int) (smtSolver!99 Int) (coreVars!114 Int) (preSize!117 Int) (edgeVars!90 Int) (reachableResult!121 Int) (res!119 Int) (transitions!106 Int) (var!98 Int) (reachableResult3!105 Int) (edgeVars!107 Int) (k!120 Int) (reachedRefined!109 Int) (i!113 Int) (loopSize!111 Int) (subPath!108 Int) (subPath!91 Int) (i!96 Int))
    (=> (and (> reachableResult!121 0)
             (= (mod l!112 2) 0)
             (or (= reachableResult!121 1) (= reachableResult!121 0))
             (= k!120 (div l!112 2))
             ($main_if2 transitions!89 edgeVars!90 subPath!91 reachedRefined!92 loopTransitions!93 loopSize!94 l!95 i!96 coreVars!97 var!98 smtSolver!99 preSize!100 j!101 res!102 k!103 reachableResult!104 reachableResult3!105 transitions!106 edgeVars!107 subPath!108 reachedRefined!109 loopTransitions!110 loopSize!111 l!112 i!113 coreVars!114 var!115 smtSolver!116 preSize!117 j!118 res!119 k!120 reachableResult!121 reachableResult3!122))
        ($main_if4 transitions!89 edgeVars!90 subPath!91 reachedRefined!92 loopTransitions!93 loopSize!94 l!95 i!96 coreVars!97 var!98 smtSolver!99 preSize!100 j!101 res!102 k!103 reachableResult!104 reachableResult3!105 transitions!106 edgeVars!107 (+ subPath!108 1) (ite (not (= subPath!91 0)) subPath!91 reachedRefined!92) loopTransitions!110 loopSize!111 (+ l!112 1) i!113 coreVars!114 var!115 smtSolver!116 preSize!117 j!118 res!119 k!120 reachableResult!121 reachableResult3!122))))

; if else
(assert
  (forall ((reachableResult!104 Int) (preSize!134 Int) (k!103 Int) (j!135 Int) (transitions!89 Int) (edgeVars!124 Int) (j!101 Int) (l!95 Int) (preSize!100 Int) (reachedRefined!92 Int) (i!130 Int) (reachedRefined!126 Int) (reachableResult3!139 Int) (coreVars!97 Int) (loopSize!94 Int) (smtSolver!133 Int) (coreVars!131 Int) (loopTransitions!93 Int) (loopTransitions!127 Int) (smtSolver!99 Int) (subPath!125 Int) (loopSize!128 Int) (edgeVars!90 Int) (var!132 Int) (var!98 Int) (k!137 Int) (transitions!123 Int) (reachableResult3!105 Int) (l!129 Int) (res!102 Int) (res!136 Int) (subPath!91 Int) (reachableResult!138 Int) (i!96 Int))
    (=> (and ($main_if3 transitions!89 edgeVars!90 subPath!91 reachedRefined!92 loopTransitions!93 loopSize!94 l!95 i!96 coreVars!97 var!98 smtSolver!99 preSize!100 j!101 res!102 k!103 reachableResult!104 reachableResult3!105 transitions!123 edgeVars!124 subPath!125 reachedRefined!126 loopTransitions!127 loopSize!128 l!129 i!130 coreVars!131 var!132 smtSolver!133 preSize!134 j!135 res!136 k!137 reachableResult!138 reachableResult3!139))
        ($main_if4 transitions!89 edgeVars!90 subPath!91 reachedRefined!92 loopTransitions!93 loopSize!94 l!95 i!96 coreVars!97 var!98 smtSolver!99 preSize!100 j!101 res!102 k!103 reachableResult!104 reachableResult3!105 transitions!123 edgeVars!124 (- subPath!125 1) reachedRefined!126 loopTransitions!127 loopSize!128 (- l!129 1) i!130 coreVars!131 var!132 smtSolver!133 preSize!134 j!135 res!136 k!137 reachableResult!138 reachableResult3!139))))

; if then
(assert
  (forall ((reachedRefined!92 Int) (var!115 Int) (reachableResult3!122 Int) (k!103 Int) (j!118 Int) (transitions!89 Int) (res!102 Int) (j!101 Int) (smtSolver!116 Int) (l!95 Int) (preSize!100 Int) (l!112 Int) (reachableResult!104 Int) (loopTransitions!110 Int) (coreVars!97 Int) (loopSize!94 Int) (loopTransitions!93 Int) (smtSolver!99 Int) (coreVars!114 Int) (preSize!117 Int) (edgeVars!90 Int) (reachableResult!121 Int) (res!119 Int) (transitions!106 Int) (var!98 Int) (reachableResult3!105 Int) (edgeVars!107 Int) (k!120 Int) (reachedRefined!109 Int) (i!113 Int) (loopSize!111 Int) (subPath!108 Int) (subPath!91 Int) (i!96 Int))
    (=> (and (> reachableResult3!122 0)
             (or (= reachableResult3!122 1) (= reachableResult3!122 0))
             (not (= (mod l!112 2) 0))
             (or (= reachableResult!121 1) (= reachableResult!121 0))
             (= k!120 (div l!112 2))
             ($main_if2 transitions!89 edgeVars!90 subPath!91 reachedRefined!92 loopTransitions!93 loopSize!94 l!95 i!96 coreVars!97 var!98 smtSolver!99 preSize!100 j!101 res!102 k!103 reachableResult!104 reachableResult3!105 transitions!106 edgeVars!107 subPath!108 reachedRefined!109 loopTransitions!110 loopSize!111 l!112 i!113 coreVars!114 var!115 smtSolver!116 preSize!117 j!118 res!119 k!120 reachableResult!121 reachableResult3!122))
        ($main_if5 transitions!89 edgeVars!90 subPath!91 reachedRefined!92 loopTransitions!93 loopSize!94 l!95 i!96 coreVars!97 var!98 smtSolver!99 preSize!100 j!101 res!102 k!103 reachableResult!104 reachableResult3!105 transitions!106 edgeVars!107 (+ subPath!108 1) (ite (not (= subPath!91 0)) subPath!91 reachedRefined!92) loopTransitions!110 loopSize!111 (+ l!112 1) i!113 coreVars!114 var!115 smtSolver!116 preSize!117 j!118 res!119 k!120 reachableResult!121 reachableResult3!122))))

; if else
(assert
  (forall ((reachedRefined!92 Int) (var!115 Int) (reachableResult3!122 Int) (k!103 Int) (j!118 Int) (transitions!89 Int) (res!102 Int) (j!101 Int) (smtSolver!116 Int) (l!95 Int) (preSize!100 Int) (l!112 Int) (reachableResult!104 Int) (loopTransitions!110 Int) (coreVars!97 Int) (loopSize!94 Int) (loopTransitions!93 Int) (smtSolver!99 Int) (coreVars!114 Int) (preSize!117 Int) (edgeVars!90 Int) (reachableResult!121 Int) (res!119 Int) (transitions!106 Int) (var!98 Int) (reachableResult3!105 Int) (edgeVars!107 Int) (k!120 Int) (reachedRefined!109 Int) (i!113 Int) (loopSize!111 Int) (subPath!108 Int) (subPath!91 Int) (i!96 Int))
    (=> (and (not (> reachableResult3!122 0))
             (or (= reachableResult3!122 1) (= reachableResult3!122 0))
             (not (= (mod l!112 2) 0))
             (or (= reachableResult!121 1) (= reachableResult!121 0))
             (= k!120 (div l!112 2))
             ($main_if2 transitions!89 edgeVars!90 subPath!91 reachedRefined!92 loopTransitions!93 loopSize!94 l!95 i!96 coreVars!97 var!98 smtSolver!99 preSize!100 j!101 res!102 k!103 reachableResult!104 reachableResult3!105 transitions!106 edgeVars!107 subPath!108 reachedRefined!109 loopTransitions!110 loopSize!111 l!112 i!113 coreVars!114 var!115 smtSolver!116 preSize!117 j!118 res!119 k!120 reachableResult!121 reachableResult3!122))
        ($main_if5 transitions!89 edgeVars!90 subPath!91 reachedRefined!92 loopTransitions!93 loopSize!94 l!95 i!96 coreVars!97 var!98 smtSolver!99 preSize!100 j!101 res!102 k!103 reachableResult!104 reachableResult3!105 transitions!106 edgeVars!107 (- subPath!108 1) (ite (not (= subPath!91 0)) subPath!91 reachedRefined!92) loopTransitions!110 loopSize!111 (- l!112 1) i!113 coreVars!114 var!115 smtSolver!116 preSize!117 j!118 res!119 k!120 reachableResult!121 reachableResult3!122))))

; if then
(assert
  (forall ((res!153 Int) (reachableResult!104 Int) (k!103 Int) (i!147 Int) (edgeVars!90 Int) (coreVars!148 Int) (transitions!89 Int) (transitions!140 Int) (j!101 Int) (j!152 Int) (reachableResult3!156 Int) (l!95 Int) (preSize!100 Int) (l!146 Int) (loopSize!145 Int) (reachedRefined!92 Int) (coreVars!97 Int) (loopSize!94 Int) (loopTransitions!144 Int) (k!154 Int) (subPath!142 Int) (reachedRefined!143 Int) (loopTransitions!93 Int) (smtSolver!99 Int) (var!98 Int) (reachableResult3!105 Int) (res!102 Int) (var!149 Int) (preSize!151 Int) (subPath!91 Int) (smtSolver!150 Int) (i!96 Int) (reachableResult!155 Int) (edgeVars!141 Int))
    (=> (and ($main_if4 transitions!89 edgeVars!90 subPath!91 reachedRefined!92 loopTransitions!93 loopSize!94 l!95 i!96 coreVars!97 var!98 smtSolver!99 preSize!100 j!101 res!102 k!103 reachableResult!104 reachableResult3!105 transitions!140 edgeVars!141 subPath!142 reachedRefined!143 loopTransitions!144 loopSize!145 l!146 i!147 coreVars!148 var!149 smtSolver!150 preSize!151 j!152 res!153 k!154 reachableResult!155 reachableResult3!156))
        ($main_if6 transitions!89 edgeVars!90 subPath!91 reachedRefined!92 loopTransitions!93 loopSize!94 l!95 i!96 coreVars!97 var!98 smtSolver!99 preSize!100 j!101 res!102 k!103 reachableResult!104 reachableResult3!105 transitions!140 edgeVars!141 subPath!142 reachedRefined!143 loopTransitions!144 loopSize!145 l!146 i!147 coreVars!148 var!149 smtSolver!150 preSize!151 j!152 res!153 k!154 reachableResult!155 reachableResult3!156))))

; if else
(assert
  (forall ((reachedRefined!92 Int) (var!166 Int) (k!103 Int) (coreVars!165 Int) (res!170 Int) (preSize!168 Int) (transitions!89 Int) (j!101 Int) (l!95 Int) (k!171 Int) (edgeVars!158 Int) (reachableResult!104 Int) (loopSize!162 Int) (coreVars!97 Int) (loopSize!94 Int) (smtSolver!99 Int) (loopTransitions!93 Int) (i!164 Int) (reachedRefined!160 Int) (subPath!159 Int) (transitions!157 Int) (edgeVars!90 Int) (loopTransitions!161 Int) (var!98 Int) (reachableResult3!105 Int) (reachableResult!172 Int) (res!102 Int) (j!169 Int) (reachableResult3!173 Int) (subPath!91 Int) (i!96 Int) (l!163 Int) (preSize!100 Int) (smtSolver!167 Int))
    (=> (and ($main_if5 transitions!89 edgeVars!90 subPath!91 reachedRefined!92 loopTransitions!93 loopSize!94 l!95 i!96 coreVars!97 var!98 smtSolver!99 preSize!100 j!101 res!102 k!103 reachableResult!104 reachableResult3!105 transitions!157 edgeVars!158 subPath!159 reachedRefined!160 loopTransitions!161 loopSize!162 l!163 i!164 coreVars!165 var!166 smtSolver!167 preSize!168 j!169 res!170 k!171 reachableResult!172 reachableResult3!173))
        ($main_if6 transitions!89 edgeVars!90 subPath!91 reachedRefined!92 loopTransitions!93 loopSize!94 l!95 i!96 coreVars!97 var!98 smtSolver!99 preSize!100 j!101 res!102 k!103 reachableResult!104 reachableResult3!105 transitions!157 edgeVars!158 subPath!159 reachedRefined!160 loopTransitions!161 loopSize!162 l!163 i!164 coreVars!165 var!166 smtSolver!167 preSize!168 j!169 res!170 k!171 reachableResult!172 reachableResult3!173))))

; forwards $main_inv4 (line 34)
(assert
  (forall ((reachedRefined!92 Int) (l!180 Int) (coreVars!182 Int) (loopTransitions!178 Int) (transitions!174 Int) (j!101 Int) (res!187 Int) (reachableResult!104 Int) (reachableResult!189 Int) (coreVars!97 Int) (loopSize!94 Int) (loopTransitions!93 Int) (smtSolver!184 Int) (smtSolver!99 Int) (edgeVars!175 Int) (k!103 Int) (edgeVars!90 Int) (reachableResult3!190 Int) (i!181 Int) (loopSize!179 Int) (var!98 Int) (j!186 Int) (reachableResult3!105 Int) (k!188 Int) (transitions!89 Int) (reachedRefined!177 Int) (res!102 Int) (var!183 Int) (subPath!91 Int) (i!96 Int) (l!95 Int) (preSize!185 Int) (subPath!176 Int) (preSize!100 Int))
    (=> (and ($main_if6 transitions!89 edgeVars!90 subPath!91 reachedRefined!92 loopTransitions!93 loopSize!94 l!95 i!96 coreVars!97 var!98 smtSolver!99 preSize!100 j!101 res!102 k!103 reachableResult!104 reachableResult3!105 transitions!174 edgeVars!175 subPath!176 reachedRefined!177 loopTransitions!178 loopSize!179 l!180 i!181 coreVars!182 var!183 smtSolver!184 preSize!185 j!186 res!187 k!188 reachableResult!189 reachableResult3!190))
        ($main_inv4 transitions!174 edgeVars!175 subPath!176 reachedRefined!177 loopTransitions!178 loopSize!179 l!180 i!181 coreVars!182 var!183 smtSolver!184 preSize!185 j!186 res!187 k!188 reachableResult!189 reachableResult3!190))))

; VERIFIER_assert (= l!197 (* loopSize!196 2))
(assert
  (forall ((var!200 Int) (reachableResult3!207 Int) (preSize!202 Int) (res!204 Int) (loopSize!196 Int) (reachableResult!206 Int) (i!198 Int) (k!205 Int) (loopTransitions!195 Int) (reachedRefined!194 Int) (l!197 Int) (transitions!191 Int) (coreVars!199 Int) (j!203 Int) (edgeVars!192 Int) (smtSolver!201 Int) (subPath!193 Int))
    (=> (and (not (= l!197 (* loopSize!196 2)))
             (> subPath!193 preSize!202)
             ($main_sum4 transitions!191 edgeVars!192 subPath!193 reachedRefined!194 loopTransitions!195 loopSize!196 l!197 i!198 coreVars!199 var!200 smtSolver!201 preSize!202 j!203 res!204 k!205 reachableResult!206 reachableResult3!207))
        false)))

; break $main_sum3
(assert
  (forall ((var!200 Int) (reachableResult3!207 Int) (preSize!202 Int) (res!204 Int) (loopSize!196 Int) (reachableResult!206 Int) (i!198 Int) (k!205 Int) (loopTransitions!195 Int) (reachedRefined!194 Int) (l!197 Int) (transitions!191 Int) (coreVars!199 Int) (j!203 Int) (edgeVars!192 Int) (smtSolver!201 Int) (subPath!193 Int))
    (=> (and (> subPath!193 preSize!202)
             ($main_sum4 transitions!191 edgeVars!192 subPath!193 reachedRefined!194 loopTransitions!195 loopSize!196 l!197 i!198 coreVars!199 var!200 smtSolver!201 preSize!202 j!203 res!204 k!205 reachableResult!206 reachableResult3!207))
        ($main_sum3 transitions!191 edgeVars!192 subPath!193 subPath!193 loopTransitions!195 loopSize!196 l!197 i!198 coreVars!199 var!200 smtSolver!201 preSize!202 j!203 res!204 k!205 reachableResult!206 reachableResult3!207))))

; if else
(assert
  (forall ((reachableResult3!207 Int) (preSize!202 Int) (res!204 Int) (j!84 Int) (reachableResult!87 Int) (reachableResult!206 Int) (i!79 Int) (var!81 Int) (i!198 Int) (reachableResult3!88 Int) (edgeVars!73 Int) (reachedRefined!194 Int) (l!197 Int) (l!78 Int) (var!200 Int) (j!203 Int) (loopSize!77 Int) (edgeVars!192 Int) (coreVars!80 Int) (loopTransitions!76 Int) (reachedRefined!75 Int) (preSize!83 Int) (transitions!72 Int) (loopSize!196 Int) (smtSolver!201 Int) (subPath!193 Int) (smtSolver!82 Int) (k!205 Int) (loopTransitions!195 Int) (k!86 Int) (subPath!74 Int) (transitions!191 Int) (coreVars!199 Int) (res!85 Int))
    (=> (and (not (> subPath!193 preSize!202))
             ($main_sum4 transitions!191 edgeVars!192 subPath!193 reachedRefined!194 loopTransitions!195 loopSize!196 l!197 i!198 coreVars!199 var!200 smtSolver!201 preSize!202 j!203 res!204 k!205 reachableResult!206 reachableResult3!207))
        ($main_if7 transitions!72 edgeVars!73 subPath!74 reachedRefined!75 loopTransitions!76 loopSize!77 l!78 i!79 coreVars!80 var!81 smtSolver!82 preSize!83 j!84 res!85 k!86 reachableResult!87 reachableResult3!88 transitions!191 edgeVars!192 subPath!193 reachedRefined!194 loopTransitions!195 loopSize!196 l!197 i!198 coreVars!199 var!200 smtSolver!201 preSize!202 j!203 res!204 k!205 reachableResult!206 reachableResult3!207))))

; if then
(assert
  (forall ((l!78 Int) (loopSize!77 Int) (loopTransitions!212 Int) (l!214 Int) (transitions!72 Int) (j!84 Int) (reachableResult3!224 Int) (reachableResult!87 Int) (edgeVars!209 Int) (res!221 Int) (k!86 Int) (coreVars!216 Int) (k!222 Int) (transitions!208 Int) (coreVars!80 Int) (loopTransitions!76 Int) (reachedRefined!75 Int) (preSize!83 Int) (subPath!210 Int) (i!79 Int) (j!220 Int) (var!81 Int) (var!217 Int) (smtSolver!82 Int) (preSize!219 Int) (reachableResult3!88 Int) (loopSize!213 Int) (edgeVars!73 Int) (smtSolver!218 Int) (i!215 Int) (reachableResult!223 Int) (subPath!74 Int) (res!85 Int) (reachedRefined!211 Int))
    (=> (and ($main_if7 transitions!72 edgeVars!73 subPath!74 reachedRefined!75 loopTransitions!76 loopSize!77 l!78 i!79 coreVars!80 var!81 smtSolver!82 preSize!83 j!84 res!85 k!86 reachableResult!87 reachableResult3!88 transitions!208 edgeVars!209 subPath!210 reachedRefined!211 loopTransitions!212 loopSize!213 l!214 i!215 coreVars!216 var!217 smtSolver!218 preSize!219 j!220 res!221 k!222 reachableResult!223 reachableResult3!224))
        ($main_if8 transitions!72 edgeVars!73 subPath!74 reachedRefined!75 loopTransitions!76 loopSize!77 l!78 i!79 coreVars!80 var!81 smtSolver!82 preSize!83 j!84 res!85 k!86 reachableResult!87 reachableResult3!88 transitions!208 edgeVars!209 subPath!210 reachedRefined!211 loopTransitions!212 loopSize!213 l!214 i!215 coreVars!216 var!217 smtSolver!218 preSize!219 j!220 res!221 k!222 reachableResult!223 reachableResult3!224))))

; if else
(assert
  (forall ((l!78 Int) (loopSize!77 Int) (transitions!72 Int) (j!84 Int) (reachableResult!87 Int) (i!79 Int) (var!81 Int) (smtSolver!82 Int) (reachableResult3!88 Int) (k!86 Int) (edgeVars!73 Int) (subPath!74 Int) (res!85 Int) (coreVars!80 Int) (loopTransitions!76 Int) (reachedRefined!75 Int) (preSize!83 Int))
    (=> (and (not (> res!85 0))
             (< j!84 loopTransitions!76)
             ($main_inv3 transitions!72 edgeVars!73 subPath!74 reachedRefined!75 loopTransitions!76 loopSize!77 l!78 i!79 coreVars!80 var!81 smtSolver!82 preSize!83 j!84 res!85 k!86 reachableResult!87 reachableResult3!88))
        ($main_if8 transitions!72 edgeVars!73 subPath!74 reachedRefined!75 loopTransitions!76 loopSize!77 l!78 i!79 coreVars!80 var!81 smtSolver!82 preSize!83 j!84 res!85 k!86 reachableResult!87 reachableResult3!88 transitions!72 edgeVars!73 subPath!74 reachedRefined!75 loopTransitions!76 loopSize!77 l!78 i!79 coreVars!80 var!81 smtSolver!82 preSize!83 j!84 res!85 k!86 reachableResult!87 reachableResult3!88))))

; forwards $main_inv3 (line 32)
(assert
  (forall ((l!78 Int) (loopSize!77 Int) (edgeVars!226 Int) (smtSolver!235 Int) (reachableResult!87 Int) (i!232 Int) (i!79 Int) (var!81 Int) (reachableResult3!241 Int) (loopSize!230 Int) (res!238 Int) (smtSolver!82 Int) (reachableResult3!88 Int) (j!237 Int) (subPath!227 Int) (subPath!74 Int) (res!85 Int) (coreVars!80 Int) (loopTransitions!76 Int) (reachedRefined!75 Int) (preSize!83 Int) (transitions!72 Int) (coreVars!233 Int) (reachedRefined!228 Int) (j!84 Int) (l!231 Int) (preSize!236 Int) (reachableResult!240 Int) (loopTransitions!229 Int) (var!234 Int) (transitions!225 Int) (k!86 Int) (k!239 Int) (edgeVars!73 Int))
    (=> (and ($main_if8 transitions!72 edgeVars!73 subPath!74 reachedRefined!75 loopTransitions!76 loopSize!77 l!78 i!79 coreVars!80 var!81 smtSolver!82 preSize!83 j!84 res!85 k!86 reachableResult!87 reachableResult3!88 transitions!225 edgeVars!226 subPath!227 reachedRefined!228 loopTransitions!229 loopSize!230 l!231 i!232 coreVars!233 var!234 smtSolver!235 preSize!236 j!237 res!238 k!239 reachableResult!240 reachableResult3!241))
        ($main_inv3 transitions!225 edgeVars!226 subPath!227 reachedRefined!228 loopTransitions!229 loopSize!230 l!231 i!232 coreVars!233 var!234 smtSolver!235 preSize!236 (+ j!237 1) res!238 k!239 reachableResult!240 reachableResult3!241))))

; if else
(assert
  (forall ((reachedRefined!245 Int) (transitions!242 Int) (j!254 Int) (var!251 Int) (preSize!253 Int) (reachableResult!36 Int) (l!248 Int) (i!28 Int) (reachableResult3!258 Int) (smtSolver!252 Int) (smtSolver!31 Int) (transitions!21 Int) (res!34 Int) (coreVars!250 Int) (res!255 Int) (l!27 Int) (preSize!32 Int) (loopTransitions!246 Int) (edgeVars!22 Int) (var!30 Int) (subPath!23 Int) (loopSize!247 Int) (reachableResult!257 Int) (i!249 Int) (j!33 Int) (k!256 Int) (reachedRefined!24 Int) (loopSize!26 Int) (k!35 Int) (edgeVars!243 Int) (coreVars!29 Int) (reachableResult3!37 Int) (loopTransitions!25 Int) (subPath!244 Int))
    (=> (and (not (= subPath!244 preSize!253))
             ($main_sum3 transitions!242 edgeVars!243 subPath!244 reachedRefined!245 loopTransitions!246 loopSize!247 l!248 i!249 coreVars!250 var!251 smtSolver!252 preSize!253 j!254 res!255 k!256 reachableResult!257 reachableResult3!258))
        ($main_if9 transitions!21 edgeVars!22 subPath!23 reachedRefined!24 loopTransitions!25 loopSize!26 l!27 i!28 coreVars!29 var!30 smtSolver!31 preSize!32 j!33 res!34 k!35 reachableResult!36 reachableResult3!37 transitions!242 edgeVars!243 subPath!244 reachedRefined!245 loopTransitions!246 loopSize!247 l!248 i!249 coreVars!250 var!251 smtSolver!252 preSize!253 j!254 res!255 k!256 reachableResult!257 reachableResult3!258))))

; forwards $main_inv1 (line 21)
(assert
  (forall ((k!273 Int) (edgeVars!22 Int) (i!266 Int) (reachableResult!274 Int) (res!272 Int) (var!268 Int) (l!265 Int) (reachableResult3!275 Int) (coreVars!267 Int) (smtSolver!269 Int) (transitions!259 Int) (res!34 Int) (loopSize!264 Int) (loopTransitions!263 Int) (l!27 Int) (preSize!32 Int) (reachableResult!36 Int) (reachedRefined!262 Int) (var!30 Int) (subPath!23 Int) (i!28 Int) (preSize!270 Int) (edgeVars!260 Int) (j!33 Int) (reachedRefined!24 Int) (loopSize!26 Int) (k!35 Int) (coreVars!29 Int) (subPath!261 Int) (smtSolver!31 Int) (transitions!21 Int) (j!271 Int) (reachableResult3!37 Int) (loopTransitions!25 Int))
    (=> (and ($main_if9 transitions!21 edgeVars!22 subPath!23 reachedRefined!24 loopTransitions!25 loopSize!26 l!27 i!28 coreVars!29 var!30 smtSolver!31 preSize!32 j!33 res!34 k!35 reachableResult!36 reachableResult3!37 transitions!259 edgeVars!260 subPath!261 reachedRefined!262 loopTransitions!263 loopSize!264 l!265 i!266 coreVars!267 var!268 smtSolver!269 preSize!270 j!271 res!272 k!273 reachableResult!274 reachableResult3!275))
        ($main_inv1 transitions!259 edgeVars!260 subPath!261 reachedRefined!262 loopTransitions!263 loopSize!264 l!265 (+ i!266 1) coreVars!267 var!268 smtSolver!269 preSize!270 j!271 res!272 k!273 reachableResult!274 reachableResult3!275))))

(check-sat)
